p cnf 21 30
-1 9 0 
-17 8 0 
-5 15 0 
-2 12 0 
-5 11 0 
-3 10 0 
-3 19 0 
-20 4 0 
-16 7 0 
-11 5 0 
-18 2 5 0 
-14 7 8 0 
-4 20 0 
-9 1 0 
-12 2 0 
-2 18 0 
-6 21 0 
-21 6 0 
-5 13 0 
-19 3 5 0 
-8 14 0 
-15 5 0 
-10 3 7 0 
-5 18 0 
-7 16 0 
-5 19 0 
-7 14 0 
-7 10 0 
-8 17 0 
-13 5 0 
